
 107    0


   0  42 2 3 4 5 6 7 8 9 10 11 12 13 14 15 16 18 19 20 21 22 24 25 26 27 28 29 30 31 32 33 34 35 36 38 39 40 41 46 47 48 59 106 
   6  19 93 92 91 86 84 83 80 79 75 73 68 66 65 55 52 50 49 45 17 
   5  21 97 96 94 92 91 90 89 85 82 81 80 78 77 73 72 68 54 52 49 37 23 
   5  20 99 97 86 85 84 80 78 77 76 75 74 68 64 63 52 51 44 43 37 23 
   9  27 100 94 93 91 90 89 85 83 81 80 79 78 77 76 74 73 72 71 70 68 67 66 64 62 61 54 43 
   8  13 102 96 89 87 86 84 83 77 75 68 64 49 23 
   3  20 105 100 88 86 83 82 79 78 77 76 75 74 73 70 69 68 67 65 63 60 
  10  17 90 88 86 85 80 76 74 72 69 67 66 64 62 60 51 50 49 
   4  17 88 87 85 83 79 77 76 75 74 73 72 66 65 63 62 61 43 
  10  16 104 95 94 91 86 76 73 72 71 70 69 67 65 64 61 42 
   3  16 89 85 84 80 78 76 74 73 72 69 66 65 62 60 58 51 
   6  15 98 92 88 79 78 77 74 73 71 70 64 62 61 57 49 
   7  15 103 88 81 79 75 72 69 67 66 65 64 63 61 52 50 
   3  15 84 82 81 80 75 74 73 72 68 67 66 62 61 60 49 
   8  14 84 82 77 76 73 69 68 67 66 65 63 62 60 55 
   8  13 101 93 81 79 72 69 66 64 62 61 60 56 49 
   9  12 88 82 81 78 76 74 72 70 69 64 63 51 
   7  11 98 86 85 75 71 69 68 64 62 60 49 
   7  11 87 83 74 73 72 71 68 67 64 60 51 
   1  10 101 91 84 83 81 75 63 62 61 56 
   6  10 87 80 77 75 72 67 66 64 63 53 
   2   8 95 84 78 74 65 64 61 44 
   8   8 70 69 67 65 62 61 60 50 
   3   8 77 73 70 67 66 61 60 53 
   5   8 86 75 71 70 65 61 60 53 
   9   8 74 73 72 67 64 62 61 49 
   9   7 90 84 78 69 61 50 49 
   5   7 80 73 69 68 67 66 54 
   9   7 99 80 75 68 67 64 62 
   5   7 89 83 67 66 65 64 62 
   2   7 76 72 70 69 64 62 61 
   3   6 93 85 83 79 65 60 
   3   6 95 71 69 68 66 65 
  10   6 92 70 69 68 64 63 
   4   6 87 85 81 72 70 67 
  10   5 89 78 75 73 49 
   5   4 87 79 66 62 
   4   3 66 64 62 
   8   3 76 72 60 
   1   3 76 71 61 
   3   3 77 65 63 
   3   2 60 49 
   8   2 82 60 
  10   2 70 60 
   3   2 90 70 
   3   2 75 66 
   7   2 70 60 
   5   2 76 64 
   2   1 63 
  10   1 71 
   6   1 61 
   1   1 60 
   1   1 62 
   3   1 65 
   9   1 74 
   6   1 68 
   6   1 68 
  10   1 71 
   2   1 81 
  10   1 107
  10   1 107
   3   1 107
   3   1 107
   8   1 107
   8   1 107
   1   1 107
   2   1 107
   7   1 107
   3   1 107
   5   1 107
   2   1 107
   4   1 107
   9   1 107
   1   1 107
   6   1 107
   8   1 107
   5   1 107
   8   1 107
   2   1 107
   8   1 107
   7   1 107
   9   1 107
   4   1 107
   2   1 107
   3   1 107
   6   1 107
   7   1 107
   1   1 107
   4   1 107
   9   1 107
   3   1 107
   2   1 107
   1   1 107
  10   1 107
   3   1 107
   4   1 107
   3   1 107
   2   1 107
   4   1 107
   2   1 107
   3   1 107
   3   1 107
   4   1 107
   3   1 107
   9   1 107
   9   1 107
   0   0 
